0 13 2 87 42 15 43 14 44 86 16 61 85 91 100 37 98 93 99 59 92 97 95 94 6 0
0 53 40 21 73 72 74 41 22 75 56 39 67 25 55 54 24 29 68 80 12 26 28 0
0 89 18 83 60 5 84 17 45 8 82 48 19 47 36 49 64 11 63 90 32 10 62 88 7 52 0
0 27 69 1 50 77 3 79 33 81 9 34 35 65 71 66 20 30 70 31 0
